minizinc/sudoku_problems2/sudoku_p30.dzn
%
% sudoku_p30.dzn
% See http://www.hakank.org/minizinc/sudoku_gcc.mzn
% 
% This problem is problem 30 from
% Gecode's sudoku.cpp
% http://www.gecode.org/gecode-doc-latest/sudoku_8cpp-source.html
% 
x = array2d(1..n, 1..n, [   
% 30
  _,  _,  _,  _, 21,  _,  1,  _,  8, 17,  _, 12, 24,  _,  _, 25,  _,  _,  _,  _, 15, 10,  _,  _,  _,
 25,  1,  _,  2,  _,  4, 12, 24,  _,  _,  _, 20,  _,  _, 10,  _,  _,  3, 17,  8,  _,  _,  _,  7,  _,
 18,  _,  _, 17,  _, 16,  _,  5,  _, 11,  _,  6,  _, 22,  _,  _, 10,  2,  4,  _, 20,  _,  _,  9,  _,
  _,  _,  _,  _,  6, 18,  _, 20, 15,  9,  _,  _,  5,  _, 25,  _, 19,  1,  _, 11, 13, 12, 14,  _, 22,
  _, 10,  _,  _,  _,  _,  2,  _,  _,  _, 15,  _,  _, 21,  _,  _, 14,  _, 22,  _,  6,  _,  5, 24,  3,
  7,  _,  _,  1,  _, 12,  _,  _,  _,  8,  _, 21,  9,  _,  _,  4, 25,  _,  5,  _, 16,  _, 20,  _,  _,
 19, 24,  _,  5, 17,  _, 22,  2,  _, 18,  _,  7,  _, 15,  _,  6, 13,  _,  _, 10,  4,  _,  _, 23, 14,
 14,  _,  3,  _, 23, 24,  _,  _,  _,  _, 20,  2,  _,  _,  _, 21, 16,  _,  _,  7, 19, 22,  _,  _,  _,
  _,  9, 15,  _, 12, 19,  _, 17,  _,  _,  _,  _, 10,  _, 23, 20, 11,  _,  1,  _,  _,  2,  _,  5,  _,
  2, 21, 11,  _,  _,  _,  5,  _,  _,  7,  _, 25,  3,  6, 17,  _, 22,  _,  _, 23,  _,  _,  _,  1, 13,
  _,  _,  _,  _,  _, 25,  _,  _, 11,  _,  _,  _,  _,  4,  6,  _, 17, 19,  _,  _,  _,  _,  _,  _,  _,
 11,  4,  _,  _,  7, 21, 18,  _, 12,  _, 16, 13,  2,  _,  _,  _, 20, 10,  _,  3, 17,  _,  _,  _,  _,
 20,  5,  _,  _,  _,  _,  _,  _,  6, 19,  1,  _,  _,  _,  _,  _,  _,  _,  _,  _,  2,  7, 24,  8, 25,
 21, 25,  _,  _,  _,  5, 20,  _, 16,  _,  _, 19, 11,  3,  _,  _,  _,  _,  _,  _,  _,  1,  _, 22,  _,
  _,  _, 14, 16,  _,  _,  _,  4,  _, 15,  _, 23, 20, 12,  _,  _,  _, 24,  _,  _,  9,  _, 11,  _,  _,
  _,  _, 22, 18,  _,  _,  _, 13,  3,  2, 10, 16, 25,  _,  _,  5, 24,  _,  _,  _,  7,  4,  _, 11, 23,
 15, 12,  7,  4,  _,  _,  _,  _,  _,  1,  _,  _, 21, 24,  _,  _,  8,  _,  _,  _,  5,  _, 13,  _, 19,
  _,  _, 19, 23,  _,  _,  _,  _, 17,  _,  _,  _, 14,  _, 18,  _,  _,  _, 13, 25, 10,  3,  _,  6,  _,
 10, 14,  _,  _,  _,  _,  _,  _,  _, 24,  3, 15,  _,  _,  5,  _,  _,  _,  _,  _,  _,  _,  _,  _, 17,
  _,  _,  _,  8,  _,  _,  6,  _,  _,  _,  _,  _,  _,  2,  4,  _,  9, 16,  _,  _,  _,  _, 18,  _,  1,
  _, 22,  _,  _,  _,  _,  8,  _,  9,  _,  _, 24,  1,  _, 15,  _, 12,  _, 14, 21,  3,  _,  _,  _, 10,
  _, 23,  _,  _,  _, 14,  _,  3,  _,  _,  _,  _,  _, 18,  7, 22,  1,  _,  _,  _, 24, 13, 16,  _, 20,
  1,  _,  _,  _,  _,  _,  _, 25,  _, 23,  9,  _,  _, 13,  _,  _,  5,  _,  _,  _,  _,  _,  _,  _,  _,
  _, 18,  _, 25,  _,  _, 15, 16, 24, 12, 22, 10,  _,  _,  _,  _,  _,  _,  _, 19,  _,  5,  _,  _,  2,
  _, 16, 20,  _,  _,  _,  _,  7,  _,  _,  _,  3,  _,  _,  _,  _,  _,  9,  2,  _,  _, 11,  _, 21,  4
]);

n = 25;


